
Gurobi 9.1.2 (win64, Java) logging started Thu Nov 11 18:22:49 2021

Academic license - for non-commercial use only - expires 2022-10-30
Gurobi Optimizer version 9.1.2 build v9.1.2rc0 (win64)
Thread count: 6 physical cores, 12 logical processors, using up to 12 threads
Optimize a model with 50 rows, 400 columns and 800 nonzeros
Model fingerprint: 0x7f2c7359
Variable types: 0 continuous, 400 integer (400 binary)
Coefficient statistics:
  Matrix range     [1e+00, 1e+03]
  Objective range  [1e+01, 1e+03]
  Bounds range     [1e+00, 1e+00]
  RHS range        [1e+00, 1e+03]
Found heuristic solution: objective 13878.000000
Presolve removed 0 rows and 62 columns
Presolve time: 0.00s
Presolved: 50 rows, 338 columns, 676 nonzeros
Variable types: 0 continuous, 338 integer (338 binary)
Presolved: 50 rows, 338 columns, 676 nonzeros


Root relaxation: objective 1.628620e+04, 59 iterations, 0.00 seconds

    Nodes    |    Current Node    |     Objective Bounds      |     Work
 Expl Unexpl |  Obj  Depth IntInf | Incumbent    BestBd   Gap | It/Node Time

     0     0 16286.2016    0   15 13878.0000 16286.2016  17.4%     -    0s
H    0     0                    15627.000000 16286.2016  4.22%     -    0s
     0     0 16286.2016    0   28 15627.0000 16286.2016  4.22%     -    0s
     0     0 16286.2016    0   28 15627.0000 16286.2016  4.22%     -    0s
H    0     0                    15855.000000 16286.2016  2.72%     -    0s
H    0     0                    15978.000016 16286.2016  1.93%     -    0s
     0     0 16259.3333    0   23 15978.0000 16259.3333  1.76%     -    0s
     0     0 16259.3333    0   18 15978.0000 16259.3333  1.76%     -    0s
     0     2 16259.3333    0   11 15978.0000 16259.3333  1.76%     -    0s
H   35    44                    15992.000000 16259.3333  1.67%   5.4    0s
H44257 12940                    15993.000000 16166.0000  1.08%   6.9    2s
H47961 11967                    16048.000000 16166.0000  0.74%   8.4    3s
H48671  9204                    16166.000031 16166.0000  0.00%   8.7    3s

Cutting planes:
  Gomory: 25
  Cover: 30
  Clique: 8
  MIR: 23
  StrongCG: 18
  Flow cover: 4
  Zero half: 1
  RLT: 5

Explored 48938 nodes (432007 simplex iterations) in 3.29 seconds
Thread count was 12 (of 12 available processors)

Solution count 8: 16166 16048 15993 ... 13878

Optimal solution found (tolerance 1.00e-12)
Best objective 1.616600000000e+04, best bound 1.616600003098e+04, gap 0.0000%
